100 36 100
17 37 16 75 29 25 30 39 15 98 11 51 94 76 97 83 86 65 19 25 50 75 94 72 91 2 12 15 55 46 3 24 83 71 51 12 96 33 3 64 31 67 15 77 43 64 61 29 29 32 54 79 59 4 50 55 16 17 62 62 20 38 98 91 89 62 40 23 66 56 6 33 71 36 28 35 49 57 17 33 64 96 93 64 43 71 68 61 33 83 33 71 33 77 61 95 17 36 61 25 
